; benchmark generated from python API
(set-info :status unknown)
(declare-datatypes ((RealState 0)) (((RMk1 (rval1 Real)) (RMk2 (rval2 Real)))))
 (assert
 (forall ((|v11:0| Real) )(exists ((|v10:1_st| RealState) (val!3246 Real) )(forall ((|v9:2| Real) )(exists ((|v8:3_st| RealState) (val!3247 Real) )(forall ((|v7:4| Real) )(exists ((|v6:5_st| RealState) (val!3248 Real) )(forall ((|v5:6| Real) )(exists ((|v4:7_st| RealState) (val!3249 Real) )(forall ((|v3:8| Real) )(exists ((|v2:9_st| RealState) (val!3250 Real) )(forall ((|v1:10| Real) )(exists ((|v0:11_st| RealState) (val!3251 Real) )(let ((?x531 (- 8.0)))
 (let ((?x2900 (rval2 |v10:1_st|)))
 (let ((?x744 (- 12.0)))
 (let ((?x2878 (* ?x744 ?x2900)))
 (let ((?x890 (+ (+ (+ (* 9.0 |v9:2|) (* (- 7.0) |v9:2|)) (* (- 16.0) |v9:2|)) ?x2878)))
 (let ((?x1974 (rval2 |v8:3_st|)))
 (let ((?x1804 (* 4.0 ?x1974)))
 (let ((?x81 (+ (+ (+ (* (- 19.0) |v9:2|) (* 10.0 |v5:6|)) (* (- 16.0) |v1:10|)) ?x1804)))
 (let ((?x1877 (+ (+ (+ (* 16.0 ?x2900) (* 19.0 |v1:10|)) (* (- 4.0) |v11:0|)) (* (- 19.0) ?x1974))))
 (let ((?x1576 (- 18.0)))
 (let ((?x251 (+ (+ (* (- 1.0) |v9:2|) (* (- 17.0) |v1:10|)) (* 18.0 (rval2 |v6:5_st|)))))
 (let (($x379 (or (or (<= (+ ?x251 (* ?x1576 (rval2 |v2:9_st|))) ?x1576) (<= ?x1877 ?x531)) (and (<= ?x81 20.0) (<= ?x890 ?x531)))))
 (let ((?x1073 (+ (+ (+ (* 17.0 |v5:6|) (* (- 3.0) (rval2 |v6:5_st|))) (* 2.0 |v11:0|)) (* 16.0 (rval2 |v6:5_st|)))))
 (let ((?x816 (+ (+ (+ (* 15.0 (rval2 |v2:9_st|)) (* 2.0 ?x2900)) (* (- 11.0) |v7:4|)) (* ?x1576 ?x2900))))
 (let ((?x1236 (- 11.0)))
 (let ((?x426 (* 13.0 ?x1974)))
 (let (($x2120 (<= (+ (+ (+ (* (- 9.0) |v9:2|) (* 5.0 |v11:0|)) (* ?x744 |v7:4|)) ?x426) ?x1236)))
 (let ((?x1817 (+ (+ (* 10.0 (rval2 |v6:5_st|)) (* ?x531 (rval2 |v4:7_st|))) (* 0.0 ?x1974))))
 (let (($x696 (and (and (<= (+ ?x1817 (* (- 9.0) |v5:6|)) 13.0) $x2120) (and (<= ?x816 4.0) (<= ?x1073 11.0)))))
 (let ((?x2227 (- 2.0)))
 (let ((?x1675 (+ (+ (+ (* 16.0 |v3:8|) (* 6.0 |v5:6|)) (* 0.0 (rval2 |v0:11_st|))) (* (- 10.0) (rval2 |v6:5_st|)))))
 (let ((?x2598 (- 5.0)))
 (let ((?x839 (* ?x2598 |v5:6|)))
 (let ((?x3160 (+ (+ (+ (* (- 14.0) |v7:4|) (* 5.0 (rval2 |v0:11_st|))) ?x839) (* 0.0 |v3:8|))))
 (let ((?x1494 (- 6.0)))
 (let ((?x2402 (* 17.0 |v11:0|)))
 (let ((?x1975 (+ (+ (+ (* ?x1494 ?x1974) (* (- 9.0) |v9:2|)) (* (- 15.0) |v7:4|)) ?x2402)))
 (let ((?x525 (+ (+ (+ (* ?x1236 (rval2 |v6:5_st|)) (* 7.0 |v5:6|)) (* (- 10.0) |v5:6|)) (* (- 20.0) |v3:8|))))
 (let ((?x2171 (- 7.0)))
 (let ((?x574 (* ?x2171 |v7:4|)))
 (let ((?x217 (+ (+ (+ (* ?x1494 (rval2 |v6:5_st|)) (* 0.0 |v1:10|)) (* 13.0 |v3:8|)) ?x574)))
 (let ((?x1324 (rval2 |v0:11_st|)))
 (let ((?x1616 (* ?x1236 ?x1324)))
 (let ((?x2592 (+ (+ (+ (* (- 19.0) ?x2900) (* 4.0 |v1:10|)) (* ?x1236 (rval2 |v2:9_st|))) ?x1616)))
 (let (($x823 (<= (+ (+ (+ ?x1804 (* 13.0 |v3:8|)) (* 3.0 |v5:6|)) (* 2.0 ?x2900)) ?x744)))
 (let (($x478 (and (and $x823 (<= ?x2592 ?x2227)) (or (<= ?x217 15.0) (<= ?x525 6.0)))))
 (let (($x2516 (and (and $x478 (or (<= ?x1975 ?x1494) (or (<= ?x3160 8.0) (<= ?x1675 ?x2227)))) (and $x696 $x379))))
 (let ((?x715 (+ (+ (+ (* (- 4.0) |v1:10|) (* 10.0 ?x2900)) (* 13.0 |v9:2|)) (* (- 19.0) |v11:0|))))
 (let ((?x2664 (* 4.0 |v3:8|)))
 (let ((?x1136 (+ (+ (* 18.0 ?x1324) (* (- 1.0) (rval2 |v6:5_st|))) (* (- 14.0) |v1:10|))))
 (let ((?x1713 (- 3.0)))
 (let ((?x1729 (* 13.0 |v5:6|)))
 (let ((?x2981 (* 20.0 |v5:6|)))
 (let ((?x2307 (+ (+ (+ (* (- 17.0) (rval2 |v6:5_st|)) (* (- 16.0) |v1:10|)) ?x2981) ?x1729)))
 (let ((?x90 (* 9.0 |v1:10|)))
 (let ((?x3093 (- 17.0)))
 (let ((?x320 (* ?x3093 |v1:10|)))
 (let ((?x2122 (+ (+ (+ (* 11.0 (rval2 |v6:5_st|)) (* 11.0 (rval2 |v2:9_st|))) ?x320) ?x90)))
 (let (($x819 (or (and (<= ?x2122 ?x2598) (<= ?x2307 ?x1713)) (or (<= (+ ?x1136 ?x2664) 10.0) (<= ?x715 ?x2227)))))
 (let ((?x1663 (rval2 |v2:9_st|)))
 (let ((?x1880 (* 14.0 ?x1663)))
 (let (($x847 (<= (+ (+ (+ (* ?x1494 |v11:0|) (* 0.0 ?x2900)) (* (- 16.0) |v7:4|)) ?x1880) 3.0)))
 (let ((?x3082 (- 19.0)))
 (let ((?x2152 (+ (+ (* ?x531 |v3:8|) (* (- 13.0) (rval2 |v4:7_st|))) (* 13.0 (rval2 |v4:7_st|)))))
 (let ((?x234 (+ (+ (+ (* ?x2598 ?x1974) (* (- 13.0) ?x2900)) (* ?x531 |v11:0|)) (* (- 4.0) ?x1324))))
 (let ((?x32 (- 4.0)))
 (let ((?x3092 (* 13.0 |v7:4|)))
 (let (($x1152 (<= (+ (+ (+ (* (- 15.0) ?x1663) (* 4.0 ?x1324)) (* ?x744 ?x1974)) ?x3092) ?x32)))
 (let (($x897 (or (or $x1152 (<= ?x234 ?x1236)) (and (<= (+ ?x2152 (* 17.0 ?x2900)) ?x3082) $x847))))
 (let ((?x1706 (+ (+ (+ (* ?x1713 |v5:6|) (* 14.0 ?x1974)) (* 7.0 |v7:4|)) (* 12.0 |v3:8|))))
 (let ((?x2375 (+ (+ (+ (* (- 14.0) |v3:8|) (* ?x744 |v7:4|)) (* 18.0 ?x1974)) (* (- 10.0) ?x1974))))
 (let ((?x1525 (- 16.0)))
 (let ((?x1373 (* ?x1576 |v5:6|)))
 (let (($x1967 (<= (+ (+ (+ ?x1616 (* 6.0 |v9:2|)) (* ?x1236 (rval2 |v4:7_st|))) ?x1373) ?x1525)))
 (let ((?x259 (+ (+ (+ (* ?x1236 |v9:2|) (* ?x32 ?x2900)) (* 3.0 (rval2 |v4:7_st|))) (* (- 13.0) |v11:0|))))
 (let (($x2110 (and (and (<= ?x259 17.0) $x1967) (or (<= ?x2375 16.0) (<= ?x1706 9.0)))))
 (let ((?x1176 (- 15.0)))
 (let ((?x3023 (* 20.0 ?x2900)))
 (let ((?x2094 (+ (+ (+ (* ?x744 |v3:8|) (* 16.0 |v7:4|)) (* (- 9.0) (rval2 |v4:7_st|))) ?x3023)))
 (let ((?x909 (* 12.0 |v11:0|)))
 (let ((?x2270 (+ (+ (+ (* (- 1.0) ?x2900) (* 0.0 |v11:0|)) (* 13.0 ?x1324)) ?x909)))
 (let ((?x1229 (* ?x3093 |v9:2|)))
 (let (($x2348 (<= (+ (+ (+ (* 3.0 |v11:0|) (* 14.0 |v9:2|)) (* ?x744 |v7:4|)) ?x1229) 3.0)))
 (let ((?x2406 (- 14.0)))
 (let ((?x1933 (+ (+ (+ (* 16.0 ?x1974) (* 10.0 ?x1324)) (* ?x1713 |v7:4|)) (* ?x2171 (rval2 |v4:7_st|)))))
 (let (($x2174 (<= (+ (+ (+ ?x3092 (* 0.0 ?x1663)) (* (- 10.0) ?x1324)) (* ?x2406 |v3:8|)) 14.0)))
 (let ((?x2832 (+ (+ (+ (* 19.0 ?x1663) (* ?x2227 |v9:2|)) (* (- 9.0) (rval2 |v4:7_st|))) (* ?x531 |v1:10|))))
 (let ((?x206 (+ (+ (+ (* 13.0 ?x2900) (* (- 1.0) ?x1663)) (* ?x32 |v7:4|)) (* 3.0 ?x1324))))
 (let ((?x2626 (* 14.0 |v5:6|)))
 (let (($x830 (<= (+ (+ (+ ?x1880 (* 2.0 ?x2900)) (* 5.0 (rval2 |v4:7_st|))) ?x2626) 7.0)))
 (let ((?x1536 (+ (+ (+ (* 19.0 ?x1663) (* ?x1494 |v5:6|)) (* ?x3082 ?x1324)) (* 9.0 ?x1974))))
 (let (($x1801 (and (and (<= ?x1536 18.0) $x830) (and (<= ?x206 ?x744) (<= ?x2832 4.0)))))
 (let (($x1449 (<= (+ (+ (+ (* 3.0 ?x2900) (* 3.0 |v5:6|)) ?x1229) (* ?x1525 ?x1324)) 12.0)))
 (let ((?x2404 (* 19.0 ?x1324)))
 (let (($x3018 (<= (+ (+ (+ (* 18.0 |v7:4|) (* ?x1576 |v3:8|)) (* 14.0 |v11:0|)) ?x2404) ?x531)))
 (let (($x1170 (<= (+ (+ (+ ?x90 (* ?x1525 |v3:8|)) (* ?x2406 |v3:8|)) (* (- 1.0) |v11:0|)) ?x2598)))
 (let ((?x595 (* 19.0 ?x1663)))
 (let (($x1895 (<= (+ (+ (+ (* 11.0 ?x1324) (* (- 1.0) ?x1324)) (* ?x3093 |v7:4|)) ?x595) ?x1494)))
 (let ((?x498 (- 1.0)))
 (let ((?x330 (+ (+ (+ (* ?x1713 |v3:8|) (* 4.0 ?x1663)) (* 19.0 |v3:8|)) (* ?x1713 ?x1663))))
 (let ((?x111 (- 10.0)))
 (let ((?x1909 (+ (+ (+ (* ?x1576 |v1:10|) (* 19.0 (rval2 |v4:7_st|))) (* ?x531 (rval2 |v6:5_st|))) (* ?x744 ?x1324))))
 (let ((?x1866 (+ (+ (+ (* ?x111 |v3:8|) (* 6.0 |v5:6|)) (* ?x2598 |v11:0|)) (* ?x111 ?x1663))))
 (let ((?x1379 (* 4.0 |v5:6|)))
 (let (($x1677 (<= (+ (+ (+ (* 13.0 |v9:2|) (* ?x2171 |v11:0|)) (* ?x3093 ?x1663)) ?x1379) 19.0)))
 (let (($x1892 (and (or (and $x1677 (<= ?x1866 13.0)) (or (<= ?x1909 ?x111) (<= ?x330 ?x498))) (and (or $x1895 $x1170) (and $x3018 $x1449)))))
 (let (($x2274 (and $x1892 (or $x1801 (or (and $x2174 (<= ?x1933 ?x2406)) (and $x2348 (<= ?x2270 ?x2227)))))))
 (let ((?x63 (+ (+ (+ (* ?x2227 |v3:8|) (* ?x1525 |v11:0|)) (* ?x1576 |v1:10|)) (* 19.0 (rval2 |v6:5_st|)))))
 (let ((?x2030 (* 12.0 |v1:10|)))
 (let (($x3058 (<= (+ (+ (+ (* 3.0 (rval2 |v4:7_st|)) (* 20.0 |v7:4|)) ?x2030) ?x2030) 5.0)))
 (let ((?x2101 (rval2 |v6:5_st|)))
 (let ((?x1604 (* 6.0 ?x2101)))
 (let (($x1930 (<= (+ (+ (+ (* ?x2171 ?x1324) (* 4.0 |v7:4|)) (* ?x1236 |v1:10|)) ?x1604) 2.0)))
 (let ((?x2050 (+ (+ (+ (* 5.0 ?x1324) ?x1974) (* 18.0 ?x2900)) (* (- 13.0) ?x1324))))
 (let (($x171 (<= (+ (+ (+ ?x2101 (* 14.0 |v1:10|)) (* (- 13.0) |v9:2|)) |v1:10|) ?x32)))
 (let ((?x1948 (- 13.0)))
 (let (($x2775 (<= (+ (+ (+ (* 7.0 |v7:4|) ?x2981) (* 8.0 ?x1663)) (* 18.0 ?x1663)) ?x1948)))
 (let ((?x246 (+ (+ (+ (* 11.0 ?x1974) (* ?x1713 |v11:0|)) (* 4.0 |v7:4|)) (* ?x531 |v9:2|))))
 (let (($x3013 (<= (+ (+ (+ ?x1373 (* ?x1576 ?x1324)) (* (- 9.0) |v3:8|)) (* 10.0 ?x2900)) ?x1525)))
 (let (($x754 (and (<= (+ (+ (+ ?x1663 (* 5.0 |v1:10|)) ?x2878) (* 15.0 ?x1974)) ?x2598) $x3013)))
 (let (($x1805 (and (and $x754 (and (<= ?x246 9.0) $x2775)) (or (and $x171 (<= ?x2050 8.0)) (or $x1930 $x3058)))))
 (let (($x1110 (or (or (and $x1805 (<= ?x63 15.0)) $x2274) (or (or (and (<= ?x2094 ?x1176) $x2110) (or $x897 $x819)) $x2516))))
 (let (($x1423 (not (= |v0:11_st| (RMk1 val!3251)))))
 (let (($x937 (not (= |v2:9_st| (RMk1 val!3250)))))
 (let (($x1277 (not (= |v4:7_st| (RMk1 val!3249)))))
 (let (($x1151 (not (= |v6:5_st| (RMk1 val!3248)))))
 (let (($x1011 (not (= |v8:3_st| (RMk1 val!3247)))))
 (let (($x439 (not (= |v10:1_st| (RMk1 val!3246)))))
 (and $x439 $x1011 $x1151 $x1277 $x937 $x1423 $x1110))))))))))))))))))))))))))))))))))))))))))))))))))))))))))))))))))))))))))))))))))))))))))))))))))))))))))))))))))))))))
 )
 )
 )
 )
 )
 )
 )
 )
 )
 )
 )
 )
(check-sat)
